
Welcome to IBM(R) ILOG(R) CPLEX(R) Interactive Optimizer 22.1.1.0
  with Simplex, Mixed Integer & Barrier Optimizers
5725-A06 5725-A29 5724-Y48 5724-Y49 5724-Y54 5724-Y55 5655-Y21
Copyright IBM Corp. 1988, 2022.  All Rights Reserved.

Type 'help' for a list of available commands.
Type 'help' followed by a command name for more
information on commands.

CPLEX> Selected objective sense:  MINIMIZE
Selected objective  name:  00000000
Selected RHS        name:  RHS1
Selected bound      name:  BOUND
Problem 'ee.mps' read.
Read time = 0.03 sec. (3.14 ticks)
CPLEX> New value for time limit in seconds: 7200
CPLEX> New value for parallel optimization mode: -1
CPLEX> New value for default parallel thread count: 40
CPLEX> New value for mixed integer optimality gap tolerance: 1e-13
CPLEX> Version identifier: 22.1.1.0 | 2022-11-28 | 9160aff4d
CPXPARAM_Threads                                 40
CPXPARAM_Parallel                                -1
CPXPARAM_TimeLimit                               7200
CPXPARAM_MIP_Tolerances_MIPGap                   1e-13
Found incumbent of value 0.000000 after 0.00 sec. (0.31 ticks)
Tried aggregator 2 times.
MIP Presolve eliminated 182 rows and 2745 columns.
MIP Presolve modified 5862 coefficients.
Aggregator did 713 substitutions.
Reduced MIP has 3623 rows, 7739 columns, and 28643 nonzeros.
Reduced MIP has 7739 binaries, 0 generals, 0 SOSs, and 0 indicators.
Presolve time = 0.07 sec. (68.55 ticks)
Probing time = 0.03 sec. (5.29 ticks)
Tried aggregator 1 time.
Detecting symmetries...
Reduced MIP has 3623 rows, 7739 columns, and 28643 nonzeros.
Reduced MIP has 7739 binaries, 0 generals, 0 SOSs, and 0 indicators.
Presolve time = 0.03 sec. (21.84 ticks)
Probing time = 0.02 sec. (5.11 ticks)
Clique table members: 18551.
MIP emphasis: balance optimality and feasibility.
MIP search method: dynamic search.
Parallel mode: opportunistic, using up to 40 threads.
Root relaxation solution time = 0.08 sec. (57.16 ticks)

        Nodes                                         Cuts/
   Node  Left     Objective  IInf  Best Integer    Best Bound    ItCnt     Gap

*     0+    0                            0.0000  -1.31000e+13              --- 
*     0+    0                      -4.29000e+12  -1.31000e+13           205.36%
*     0+    0                      -5.39000e+12  -1.31000e+13           143.04%
*     0+    0                      -5.50000e+12  -1.31000e+13           138.18%
      0     0  -1.30900e+13    21  -5.50000e+12  -1.30900e+13     1547  138.00%
*     0+    0                      -1.30900e+13  -1.30900e+13             0.00%
      0     0  -1.30900e+13   153  -1.30900e+13      Cuts: 38     1882    0.00%
      0     0  -1.30900e+13   117  -1.30900e+13      Cuts: 89     2066    0.00%
*     0+    0                      -1.30900e+13  -1.30900e+13             0.00%
      0     0  -1.30900e+13   170  -1.30900e+13      Cuts: 58     2129    0.00%
*     0+    0                      -1.30900e+13  -1.30900e+13             0.00%
*     0+    0                      -1.30900e+13  -1.30900e+13             0.00%

Repeating presolve.
Tried aggregator 2 times.
MIP Presolve eliminated 1361 rows and 3465 columns.
MIP Presolve added 2 rows and 0 columns.
MIP Presolve modified 86 coefficients.
Aggregator did 480 substitutions.
Reduced MIP has 1784 rows, 3743 columns, and 13263 nonzeros.
Reduced MIP has 3743 binaries, 0 generals, 0 SOSs, and 0 indicators.
Presolve time = 0.05 sec. (49.12 ticks)
Probing fixed 44 vars, tightened 0 bounds.
Probing time = 0.03 sec. (15.79 ticks)
Tried aggregator 2 times.
MIP Presolve eliminated 34 rows and 57 columns.
Aggregator did 16 substitutions.
Reduced MIP has 1734 rows, 3669 columns, and 12973 nonzeros.
Reduced MIP has 3669 binaries, 0 generals, 0 SOSs, and 0 indicators.
Presolve time = 0.02 sec. (20.74 ticks)
Probing time = 0.01 sec. (3.63 ticks)
Tried aggregator 1 time.
Detecting symmetries...
Reduced MIP has 1734 rows, 3669 columns, and 12973 nonzeros.
Reduced MIP has 3669 binaries, 0 generals, 0 SOSs, and 0 indicators.
Presolve time = 0.03 sec. (14.79 ticks)
Represolve time = 0.16 sec. (126.66 ticks)
Probing time = 0.02 sec. (4.95 ticks)
Clique table members: 8730.
MIP emphasis: balance optimality and feasibility.
MIP search method: dynamic search.
Parallel mode: opportunistic, using up to 40 threads.
Root relaxation solution time = 0.08 sec. (45.70 ticks)

        Nodes                                         Cuts/
   Node  Left     Objective  IInf  Best Integer    Best Bound    ItCnt     Gap

*     0+    0                      -1.30900e+13  -1.30900e+13             0.00%
      0     0  -1.30900e+13   104  -1.30900e+13  -1.30900e+13     3410    0.00%
      0     0  -1.30900e+13   160  -1.30900e+13      Cuts: 59     3823    0.00%
      0     0  -1.30900e+13   147  -1.30900e+13      Cuts: 80     4069    0.00%
      0     0  -1.30900e+13   167  -1.30900e+13      Cuts: 90     4156    0.00%
      0     2  -1.30900e+13   131  -1.30900e+13  -1.30900e+13     4156    0.00%
Elapsed time = 2.04 sec. (1361.82 ticks, tree = 0.02 MB, solutions = 9)
    763    66        cutoff        -1.30900e+13  -1.30900e+13    34406    0.00%
   2304   235        cutoff        -1.30900e+13  -1.30900e+13    68934    0.00%
   3633   372        cutoff        -1.30900e+13  -1.30900e+13   156577    0.00%
   5804   384  -1.30900e+13     3  -1.30900e+13  -1.30900e+13   212295    0.00%
   7314   389  -1.30900e+13    42  -1.30900e+13  -1.30900e+13   198995    0.00%
   8055   308        cutoff        -1.30900e+13  -1.30900e+13   247970    0.00%

GUB cover cuts applied:  4
Clique cuts applied:  20
Cover cuts applied:  464
Flow cuts applied:  2
Mixed integer rounding cuts applied:  28
Zero-half cuts applied:  20
Lift and project cuts applied:  20
Gomory fractional cuts applied:  20

Root node processing (before b&c):
  Real time             =    1.58 sec. (1361.33 ticks)
Parallel b&c, 40 threads:
  Real time             =    2.68 sec. (1641.41 ticks)
  Sync time (average)   =    0.78 sec.
  Wait time (average)   =    0.00 sec.
                          ------------
Total (root+branch&cut) =    4.26 sec. (3002.74 ticks)

Solution pool: 11 solutions saved.

MIP - Integer optimal solution:  Objective = -1.3089999790e+13
Solution time =    4.34 sec.  Iterations = 312926  Nodes = 8422
Deterministic time = 3002.77 ticks  (692.12 ticks/sec)

CPLEX> Solution 'p12' written to file 'ee.sol'.
CPLEX> 